Route #1: 1 42 26 37 7 11 45 30 38 1
Route #2: 1 41 43 21 19 31 2 9 1
Route #3: 1 44 3 49 17 10 50 16 20 35 47 39 1
Route #4: 1 48 28 6 52 36 34 8 1
Route #5: 1 29 12 22 4 32 25 40 15 24 1
Route #6: 1 14 33 27 23 18 51 13 1
Route #7: 1 46 5 1
cost 927.4079877780989
